252731 11464
174638 63183.9
1142.72 255784
22917.4 233677
208929 31978.3
92301.6 161467
211120 31665.6
120372 144337
240099 16996.1
211397 31562.1
61194.5 190864
110057 145613
69241.4 180405
17947.6 240382
30817.2 212429
141937 115317
152163 103546
2723.21 240562
173271 78446.8
204253 45943.7
108680 146197
126821 129967
181549 62235.8
128007 124956
138048 119819
25247.7 223495
212636 31269.3
42422 209928
58546.3 192812
207373 36674.5
47135.6 200387
107398 149298
233522 22005.5
147070 106094
54589 195505
93692.8 158692
82219.2 164717
187930 59282.1
194524 55269.3
215181 29564.4
24641.6 227266
58978.3 192307
230663 23773.8
193418 57061.2
154639 96069.9
238058 17462.3
203549 48229.5
78498.7 166496
201763 54467.3
154739 95582.4
240801 13621.1
160808 91075.8
184431 61467
27548.1 223046
28636.9 219310
105588 152410
140355 118336
